graphite
1.0
   2.4606000000000000    0.0000000000000000    0.0000000000000000
  -1.2303000000000000    2.1309421090000000    0.0000000000000000
   0.0000000000000004    0.0000000000000007    6.7050000000000000
C
4
Direct
   0.0000000000000000    0.0000000000000000    0.0000000000000000    !C
   0.0000000000000000    0.0000000000000000    0.5000000000000000    !C
   0.3333333333333333    0.6666666666666667    0.0000000000000000    !C
   0.6666666666666667    0.3333333333333333    0.5000000000000000    !C
